c colouring generated by benchmark framework
p edge 933 4640
v 1 5
v 2 1
v 3 2
v 4 4
v 5 3
v 6 3
v 7 2
v 8 4
v 9 4
v 10 0
v 11 0
v 12 1
v 13 1
v 14 4
v 15 3
v 16 5
v 17 1
v 18 3
v 19 3
v 20 2
v 21 3
v 22 4
v 23 3
v 24 3
v 25 1
v 26 0
v 27 0
v 28 1
v 29 3
v 30 2
v 31 4
v 32 1
v 33 0
v 34 0
v 35 1
v 36 0
v 37 5
v 38 0
v 39 4
v 40 1
v 41 1
v 42 3
v 43 1
v 44 0
v 45 1
v 46 1
v 47 1
v 48 5
v 49 0
v 50 5
v 51 1
v 52 1
v 53 4
v 54 3
v 55 1
v 56 2
v 57 4
v 58 5
v 59 5
v 60 5
v 61 3
v 62 4
v 63 5
v 64 1
v 65 0
v 66 3
v 67 1
v 68 0
v 69 1
v 70 4
v 71 5
v 72 2
v 73 5
v 74 1
v 75 5
v 76 3
v 77 0
v 78 5
v 79 0
v 80 3
v 81 1
v 82 2
v 83 4
v 84 4
v 85 5
v 86 3
v 87 0
v 88 3
v 89 0
v 90 3
v 91 3
v 92 1
v 93 4
v 94 5
v 95 5
v 96 1
v 97 5
v 98 3
v 99 1
v 100 0
v 101 0
v 102 3
v 103 3
v 104 5
v 105 0
v 106 3
v 107 3
v 108 5
v 109 0
v 110 0
v 111 1
v 112 2
v 113 1
v 114 3
v 115 5
v 116 3
v 117 3
v 118 3
v 119 5
v 120 0
v 121 1
v 122 3
v 123 4
v 124 3
v 125 1
v 126 0
v 127 1
v 128 4
v 129 4
v 130 0
v 131 3
v 132 1
v 133 5
v 134 4
v 135 2
v 136 3
v 137 3
v 138 0
v 139 0
v 140 1
v 141 4
v 142 0
v 143 4
v 144 3
v 145 0
v 146 4
v 147 4
v 148 4
v 149 5
v 150 1
v 151 5
v 152 4
v 153 1
v 154 3
v 155 3
v 156 1
v 157 0
v 158 2
v 159 5
v 160 4
v 161 3
v 162 2
v 163 4
v 164 5
v 165 1
v 166 3
v 167 3
v 168 0
v 169 0
v 170 0
v 171 1
v 172 5
v 173 4
v 174 1
v 175 5
v 176 0
v 177 1
v 178 4
v 179 5
v 180 0
v 181 1
v 182 3
v 183 5
v 184 3
v 185 4
v 186 3
v 187 3
v 188 4
v 189 0
v 190 1
v 191 1
v 192 2
v 193 3
v 194 2
v 195 0
v 196 1
v 197 3
v 198 3
v 199 3
v 200 0
v 201 4
v 202 4
v 203 5
v 204 3
v 205 0
v 206 1
v 207 3
v 208 4
v 209 1
v 210 2
v 211 3
v 212 2
v 213 4
v 214 4
v 215 3
v 216 3
v 217 3
v 218 2
v 219 2
v 220 3
v 221 3
v 222 5
v 223 2
v 224 5
v 225 1
v 226 4
v 227 0
v 228 0
v 229 3
v 230 5
v 231 2
v 232 2
v 233 2
v 234 0
v 235 5
v 236 2
v 237 3
v 238 4
v 239 3
v 240 1
v 241 0
v 242 3
v 243 3
v 244 1
v 245 1
v 246 1
v 247 3
v 248 0
v 249 1
v 250 2
v 251 2
v 252 3
v 253 1
v 254 3
v 255 0
v 256 0
v 257 3
v 258 1
v 259 4
v 260 5
v 261 1
v 262 2
v 263 2
v 264 3
v 265 3
v 266 1
v 267 0
v 268 0
v 269 0
v 270 3
v 271 0
v 272 1
v 273 4
v 274 4
v 275 2
v 276 0
v 277 4
v 278 2
v 279 3
v 280 0
v 281 3
v 282 4
v 283 0
v 284 2
v 285 1
v 286 4
v 287 3
v 288 4
v 289 3
v 290 2
v 291 0
v 292 1
v 293 0
v 294 3
v 295 3
v 296 0
v 297 4
v 298 4
v 299 3
v 300 1
v 301 1
v 302 0
v 303 1
v 304 2
v 305 4
v 306 2
v 307 1
v 308 1
v 309 0
v 310 2
v 311 3
v 312 1
v 313 3
v 314 0
v 315 1
v 316 5
v 317 4
v 318 2
v 319 1
v 320 4
v 321 1
v 322 1
v 323 0
v 324 0
v 325 3
v 326 0
v 327 0
v 328 5
v 329 2
v 330 1
v 331 1
v 332 1
v 333 2
v 334 4
v 335 4
v 336 3
v 337 3
v 338 3
v 339 1
v 340 0
v 341 4
v 342 0
v 343 0
v 344 3
v 345 3
v 346 1
v 347 0
v 348 3
v 349 1
v 350 3
v 351 1
v 352 3
v 353 0
v 354 2
v 355 3
v 356 0
v 357 4
v 358 1
v 359 1
v 360 5
v 361 0
v 362 0
v 363 0
v 364 2
v 365 3
v 366 4
v 367 0
v 368 3
v 369 1
v 370 3
v 371 4
v 372 0
v 373 2
v 374 4
v 375 3
v 376 2
v 377 0
v 378 3
v 379 3
v 380 3
v 381 3
v 382 1
v 383 0
v 384 4
v 385 1
v 386 3
v 387 1
v 388 3
v 389 0
v 390 0
v 391 5
v 392 4
v 393 2
v 394 3
v 395 0
v 396 4
v 397 0
v 398 4
v 399 0
v 400 2
v 401 2
v 402 3
v 403 4
v 404 2
v 405 3
v 406 2
v 407 3
v 408 1
v 409 0
v 410 1
v 411 0
v 412 0
v 413 1
v 414 0
v 415 2
v 416 1
v 417 4
v 418 3
v 419 1
v 420 2
v 421 3
v 422 1
v 423 2
v 424 4
v 425 4
v 426 0
v 427 0
v 428 4
v 429 1
v 430 1
v 431 3
v 432 4
v 433 5
v 434 3
v 435 1
v 436 1
v 437 4
v 438 3
v 439 3
v 440 3
v 441 5
v 442 0
v 443 3
v 444 1
v 445 5
v 446 1
v 447 3
v 448 2
v 449 2
v 450 4
v 451 5
v 452 1
v 453 3
v 454 0
v 455 5
v 456 5
v 457 1
v 458 3
v 459 3
v 460 0
v 461 1
v 462 2
v 463 3
v 464 4
v 465 3
v 466 0
v 467 4
v 468 3
v 469 0
v 470 5
v 471 3
v 472 0
v 473 0
v 474 0
v 475 3
v 476 1
v 477 0
v 478 1
v 479 2
v 480 4
v 481 4
v 482 3
v 483 1
v 484 0
v 485 3
v 486 3
v 487 1
v 488 1
v 489 1
v 490 3
v 491 4
v 492 4
v 493 2
v 494 1
v 495 3
v 496 4
v 497 1
v 498 2
v 499 5
v 500 5
v 501 2
v 502 0
v 503 4
v 504 4
v 505 2
v 506 2
v 507 1
v 508 5
v 509 3
v 510 3
v 511 3
v 512 1
v 513 5
v 514 3
v 515 2
v 516 3
v 517 2
v 518 3
v 519 0
v 520 1
v 521 1
v 522 3
v 523 3
v 524 0
v 525 3
v 526 2
v 527 5
v 528 4
v 529 1
v 530 1
v 531 1
v 532 0
v 533 3
v 534 1
v 535 4
v 536 0
v 537 4
v 538 3
v 539 1
v 540 1
v 541 2
v 542 1
v 543 0
v 544 0
v 545 3
v 546 3
v 547 0
v 548 1
v 549 4
v 550 3
v 551 4
v 552 1
v 553 1
v 554 0
v 555 0
v 556 4
v 557 3
v 558 0
v 559 4
v 560 1
v 561 3
v 562 0
v 563 1
v 564 1
v 565 0
v 566 5
v 567 5
v 568 1
v 569 2
v 570 4
v 571 3
v 572 3
v 573 3
v 574 5
v 575 2
v 576 0
v 577 5
v 578 3
v 579 3
v 580 0
v 581 1
v 582 2
v 583 0
v 584 5
v 585 0
v 586 5
v 587 2
v 588 1
v 589 1
v 590 1
v 591 4
v 592 0
v 593 3
v 594 3
v 595 1
v 596 4
v 597 1
v 598 0
v 599 1
v 600 1
v 601 3
v 602 1
v 603 2
v 604 1
v 605 3
v 606 1
v 607 0
v 608 2
v 609 1
v 610 1
v 611 1
v 612 0
v 613 1
v 614 3
v 615 2
v 616 4
v 617 2
v 618 0
v 619 1
v 620 4
v 621 3
v 622 0
v 623 1
v 624 3
v 625 4
v 626 0
v 627 0
v 628 1
v 629 0
v 630 1
v 631 0
v 632 0
v 633 1
v 634 2
v 635 3
v 636 4
v 637 3
v 638 4
v 639 3
v 640 0
v 641 1
v 642 0
v 643 4
v 644 1
v 645 4
v 646 2
v 647 3
v 648 3
v 649 4
v 650 0
v 651 4
v 652 0
v 653 1
v 654 1
v 655 1
v 656 3
v 657 0
v 658 3
v 659 0
v 660 3
v 661 3
v 662 0
v 663 3
v 664 3
v 665 4
v 666 3
v 667 4
v 668 4
v 669 2
v 670 0
v 671 3
v 672 0
v 673 3
v 674 0
v 675 0
v 676 1
v 677 1
v 678 3
v 679 4
v 680 1
v 681 2
v 682 3
v 683 2
v 684 1
v 685 4
v 686 2
v 687 3
v 688 3
v 689 1
v 690 0
v 691 4
v 692 3
v 693 0
v 694 0
v 695 3
v 696 0
v 697 1
v 698 3
v 699 1
v 700 1
v 701 3
v 702 2
v 703 3
v 704 4
v 705 3
v 706 1
v 707 1
v 708 3
v 709 3
v 710 3
v 711 4
v 712 4
v 713 3
v 714 4
v 715 3
v 716 3
v 717 3
v 718 4
v 719 5
v 720 1
v 721 3
v 722 4
v 723 3
v 724 2
v 725 0
v 726 1
v 727 0
v 728 1
v 729 3
v 730 4
v 731 1
v 732 3
v 733 2
v 734 3
v 735 4
v 736 4
v 737 3
v 738 3
v 739 1
v 740 4
v 741 0
v 742 2
v 743 0
v 744 1
v 745 4
v 746 0
v 747 3
v 748 4
v 749 1
v 750 5
v 751 4
v 752 4
v 753 3
v 754 1
v 755 2
v 756 0
v 757 1
v 758 3
v 759 1
v 760 1
v 761 3
v 762 1
v 763 2
v 764 3
v 765 3
v 766 1
v 767 3
v 768 4
v 769 3
v 770 0
v 771 4
v 772 2
v 773 3
v 774 1
v 775 0
v 776 1
v 777 4
v 778 0
v 779 1
v 780 2
v 781 5
v 782 3
v 783 4
v 784 1
v 785 3
v 786 1
v 787 2
v 788 0
v 789 3
v 790 5
v 791 0
v 792 3
v 793 4
v 794 2
v 795 1
v 796 0
v 797 1
v 798 1
v 799 1
v 800 4
v 801 1
v 802 4
v 803 1
v 804 0
v 805 4
v 806 3
v 807 3
v 808 4
v 809 3
v 810 1
v 811 1
v 812 0
v 813 3
v 814 2
v 815 1
v 816 2
v 817 0
v 818 3
v 819 1
v 820 1
v 821 0
v 822 1
v 823 4
v 824 2
v 825 3
v 826 3
v 827 1
v 828 1
v 829 3
v 830 5
v 831 0
v 832 1
v 833 3
v 834 0
v 835 1
v 836 0
v 837 3
v 838 2
v 839 1
v 840 0
v 841 1
v 842 1
v 843 1
v 844 0
v 845 0
v 846 3
v 847 0
v 848 1
v 849 1
v 850 1
v 851 4
v 852 4
v 853 2
v 854 0
v 855 3
v 856 2
v 857 1
v 858 3
v 859 5
v 860 3
v 861 0
v 862 0
v 863 4
v 864 0
v 865 3
v 866 0
v 867 1
v 868 3
v 869 1
v 870 1
v 871 4
v 872 4
v 873 2
v 874 2
v 875 0
v 876 3
v 877 4
v 878 0
v 879 1
v 880 4
v 881 4
v 882 3
v 883 0
v 884 2
v 885 2
v 886 3
v 887 3
v 888 2
v 889 0
v 890 2
v 891 0
v 892 3
v 893 2
v 894 1
v 895 0
v 896 4
v 897 1
v 898 3
v 899 3
v 900 1
v 901 3
v 902 1
v 903 3
v 904 1
v 905 4
v 906 5
v 907 3
v 908 3
v 909 1
v 910 3
v 911 1
v 912 3
v 913 1
v 914 0
v 915 3
v 916 0
v 917 0
v 918 0
v 919 1
v 920 5
v 921 4
v 922 2
v 923 4
v 924 4
v 925 4
v 926 3
v 927 3
v 928 1
v 929 2
v 930 1
v 931 0
v 932 4
v 933 1
